SECTION Graph
Nodes 317
Edges 476
E 1 2 5
E 2 3 5
E 3 4 5
E 4 5 5
E 5 6 5
E 6 7 5
E 7 8 5
E 11 12 5
E 12 13 5
E 13 14 5
E 15 16 5
E 16 17 5
E 17 18 5
E 18 19 5
E 19 20 5
E 20 21 5
E 21 22 5
E 22 23 5
E 23 24 5
E 24 25 5
E 25 26 5
E 26 27 5
E 28 29 5
E 29 30 5
E 30 31 5
E 31 32 5
E 32 33 5
E 33 34 5
E 34 35 5
E 35 36 5
E 36 37 5
E 37 38 5
E 38 39 5
E 39 40 5
E 40 41 5
E 1 42 13
E 2 43 13
E 3 44 13
E 4 45 13
E 5 46 13
E 8 49 13
E 9 51 13
E 10 53 13
E 11 55 13
E 13 57 13
E 14 58 13
E 15 59 13
E 16 60 13
E 17 61 13
E 18 62 13
E 19 63 13
E 20 64 13
E 21 65 13
E 23 67 13
E 25 69 13
E 27 71 13
E 28 72 13
E 30 74 13
E 33 77 13
E 36 78 13
E 37 79 13
E 38 80 13
E 39 81 13
E 40 82 13
E 41 83 13
E 42 43 5
E 43 44 5
E 44 45 5
E 45 46 5
E 46 47 5
E 47 48 5
E 48 49 5
E 49 50 5
E 50 51 5
E 51 52 5
E 52 53 5
E 53 54 5
E 54 55 5
E 55 56 5
E 56 57 5
E 57 58 5
E 59 60 5
E 60 61 5
E 61 62 5
E 62 63 5
E 63 64 5
E 64 65 5
E 65 66 5
E 66 67 5
E 67 68 5
E 68 69 5
E 69 70 5
E 70 71 5
E 72 73 5
E 73 74 5
E 74 75 5
E 75 76 5
E 76 77 5
E 78 79 5
E 79 80 5
E 80 81 5
E 81 82 5
E 82 83 5
E 42 84 13
E 45 87 13
E 48 90 13
E 49 91 13
E 50 92 13
E 53 95 13
E 55 96 13
E 56 97 13
E 58 99 13
E 59 102 13
E 60 103 13
E 62 105 13
E 64 106 13
E 65 107 13
E 66 108 13
E 67 109 13
E 68 110 13
E 71 111 13
E 72 113 13
E 73 114 13
E 74 115 13
E 76 117 13
E 77 118 13
E 78 119 13
E 79 120 13
E 81 121 13
E 82 122 13
E 83 123 13
E 84 85 5
E 85 86 5
E 86 87 5
E 87 88 5
E 88 89 5
E 89 90 5
E 90 91 5
E 91 92 5
E 92 93 5
E 93 94 5
E 94 95 5
E 96 97 5
E 97 98 5
E 98 99 5
E 99 100 5
E 100 101 5
E 101 102 5
E 102 103 5
E 103 104 5
E 104 105 5
E 106 107 5
E 107 108 5
E 108 109 5
E 109 110 5
E 111 112 5
E 112 113 5
E 113 114 5
E 114 115 5
E 115 116 5
E 116 117 5
E 117 118 5
E 119 120 5
E 121 122 5
E 122 123 5
E 84 124 13
E 85 125 13
E 86 126 13
E 87 127 13
E 90 130 13
E 91 131 13
E 93 133 13
E 94 134 13
E 95 135 13
E 96 136 13
E 97 137 13
E 98 138 13
E 99 139 13
E 100 140 13
E 101 141 13
E 102 142 13
E 103 143 13
E 105 145 13
E 106 146 13
E 109 147 13
E 110 148 13
E 111 149 13
E 112 150 13
E 113 151 13
E 115 153 13
E 116 154 13
E 117 155 13
E 118 156 13
E 119 159 13
E 120 160 13
E 121 161 13
E 122 162 13
E 123 163 13
E 124 125 5
E 125 126 5
E 126 127 5
E 127 128 5
E 128 129 5
E 129 130 5
E 130 131 5
E 131 132 5
E 132 133 5
E 133 134 5
E 134 135 5
E 136 137 5
E 137 138 5
E 138 139 5
E 139 140 5
E 140 141 5
E 141 142 5
E 142 143 5
E 143 144 5
E 144 145 5
E 147 148 5
E 149 150 5
E 150 151 5
E 151 152 5
E 152 153 5
E 153 154 5
E 154 155 5
E 155 156 5
E 156 157 5
E 157 158 5
E 158 159 5
E 159 160 5
E 161 162 5
E 162 163 5
E 124 164 13
E 127 167 13
E 129 168 13
E 130 169 13
E 131 170 13
E 132 171 13
E 133 172 13
E 135 173 13
E 136 175 13
E 137 176 13
E 139 178 13
E 140 179 13
E 143 180 13
E 144 181 13
E 145 182 13
E 146 184 13
E 147 185 13
E 148 186 13
E 149 189 13
E 150 190 13
E 151 191 13
E 154 192 13
E 155 193 13
E 158 196 13
E 159 197 13
E 160 198 13
E 161 200 13
E 163 201 13
E 164 165 5
E 165 166 5
E 166 167 5
E 168 169 5
E 169 170 5
E 170 171 5
E 171 172 5
E 173 174 5
E 174 175 5
E 175 176 5
E 176 177 5
E 177 178 5
E 178 179 5
E 180 181 5
E 181 182 5
E 182 183 5
E 183 184 5
E 185 186 5
E 186 187 5
E 187 188 5
E 188 189 5
E 189 190 5
E 190 191 5
E 192 193 5
E 193 194 5
E 194 195 5
E 195 196 5
E 196 197 5
E 197 198 5
E 198 199 5
E 199 200 5
E 164 202 13
E 165 203 13
E 166 204 13
E 167 205 13
E 168 206 13
E 170 207 13
E 171 208 13
E 172 209 13
E 173 210 13
E 175 211 13
E 176 212 13
E 177 213 13
E 178 214 13
E 179 215 13
E 180 216 13
E 182 218 13
E 183 219 13
E 184 220 13
E 185 223 13
E 186 224 13
E 187 225 13
E 190 226 13
E 191 227 13
E 192 228 13
E 193 229 13
E 196 232 13
E 199 235 13
E 200 236 13
E 201 237 13
E 202 203 5
E 203 204 5
E 204 205 5
E 207 208 5
E 208 209 5
E 211 212 5
E 212 213 5
E 213 214 5
E 214 215 5
E 216 217 5
E 217 218 5
E 218 219 5
E 219 220 5
E 220 221 5
E 221 222 5
E 222 223 5
E 223 224 5
E 224 225 5
E 226 227 5
E 228 229 5
E 229 230 5
E 230 231 5
E 231 232 5
E 232 233 5
E 233 234 5
E 234 235 5
E 235 236 5
E 202 238 13
E 204 239 13
E 205 240 13
E 206 242 13
E 207 243 13
E 208 244 13
E 209 245 13
E 210 247 13
E 211 248 13
E 212 249 13
E 214 250 13
E 215 251 13
E 216 254 13
E 218 256 13
E 220 258 13
E 221 259 13
E 222 260 13
E 223 261 13
E 225 263 13
E 226 264 13
E 227 265 13
E 228 268 13
E 229 269 13
E 230 270 13
E 232 271 13
E 234 272 13
E 235 273 13
E 236 274 13
E 237 276 13
E 239 240 5
E 240 241 5
E 241 242 5
E 243 244 5
E 244 245 5
E 245 246 5
E 246 247 5
E 248 249 5
E 250 251 5
E 251 252 5
E 252 253 5
E 253 254 5
E 254 255 5
E 255 256 5
E 256 257 5
E 257 258 5
E 258 259 5
E 259 260 5
E 260 261 5
E 261 262 5
E 262 263 5
E 264 265 5
E 265 266 5
E 266 267 5
E 267 268 5
E 268 269 5
E 269 270 5
E 272 273 5
E 273 274 5
E 274 275 5
E 275 276 5
E 238 277 13
E 239 278 13
E 240 279 13
E 242 280 13
E 243 282 13
E 245 284 13
E 246 285 13
E 247 286 13
E 248 288 13
E 249 289 13
E 250 290 13
E 251 291 13
E 252 292 13
E 253 293 13
E 254 294 13
E 255 295 13
E 256 296 13
E 257 297 13
E 258 298 13
E 259 299 13
E 261 301 13
E 262 302 13
E 263 303 13
E 264 306 13
E 265 307 13
E 266 308 13
E 267 309 13
E 268 310 13
E 269 311 13
E 270 312 13
E 271 313 13
E 272 314 13
E 274 315 13
E 275 316 13
E 276 317 13
E 278 279 5
E 280 281 5
E 281 282 5
E 282 283 5
E 283 284 5
E 284 285 5
E 285 286 5
E 286 287 5
E 287 288 5
E 288 289 5
E 290 291 5
E 291 292 5
E 292 293 5
E 293 294 5
E 294 295 5
E 295 296 5
E 296 297 5
E 297 298 5
E 298 299 5
E 299 300 5
E 300 301 5
E 301 302 5
E 302 303 5
E 303 304 5
E 304 305 5
E 305 306 5
E 306 307 5
E 307 308 5
E 308 309 5
E 309 310 5
E 310 311 5
E 311 312 5
E 315 316 5
E 316 317 5
END

SECTION Terminals
Terminals 11
T 23
T 43
T 60
T 64
T 103
T 180
T 216
T 218
T 223
T 259
T 275
END

EOF
